DIMACS_lns/graph-1000-948.col
p edge 1000 1804
e 1 669
e 1 845
e 1 643
e 1 933
e 1 702
e 2 616
e 2 493
e 2 422
e 2 346
e 4 489
e 4 371
e 4 508
e 4 891
e 4 884
e 4 51
e 5 269
e 5 303
e 5 34
e 5 197
e 6 182
e 6 718
e 6 141
e 6 36
e 6 325
e 6 815
e 6 468
e 7 663
e 7 536
e 7 434
e 7 367
e 7 113
e 7 650
e 8 332
e 8 854
e 8 792
e 8 575
e 10 422
e 10 492
e 10 899
e 10 88
e 10 875
e 12 262
e 12 373
e 12 341
e 12 804
e 12 921
e 12 886
e 13 712
e 13 637
e 13 646
e 13 900
e 14 254
e 14 82
e 14 571
e 15 499
e 15 532
e 15 776
e 15 221
e 16 709
e 16 504
e 16 86
e 16 407
e 16 257
e 16 668
e 16 17
e 16 794
e 17 496
e 17 609
e 19 460
e 19 423
e 19 960
e 19 247
e 19 637
e 20 570
e 20 712
e 20 121
e 20 513
e 21 593
e 21 911
e 21 181
e 22 253
e 22 123
e 22 78
e 22 294
e 27 478
e 27 340
e 27 163
e 28 263
e 28 511
e 28 311
e 28 592
e 29 565
e 29 551
e 29 926
e 29 928
e 29 491
e 29 67
e 29 699
e 31 43
e 31 636
e 31 549
e 31 287
e 32 759
e 32 258
e 32 313
e 32 894
e 33 392
e 33 870
e 33 611
e 33 209
e 33 304
e 33 54
e 34 597
e 34 290
e 34 85
e 35 870
e 35 626
e 35 587
e 36 115
e 36 761
e 36 174
e 36 913
e 37 942
e 37 961
e 37 524
e 37 144
e 38 576
e 38 661
e 38 564
e 39 469
e 39 627
e 39 131
e 39 403
e 41 878
e 41 357
e 41 138
e 41 527
e 43 996
e 43 231
e 43 497
e 43 261
e 44 364
e 44 732
e 44 539
e 44 947
e 44 422
e 44 598
e 45 488
e 45 997
e 45 529
e 45 907
e 45 652
e 47 444
e 47 724
e 47 867
e 47 671
e 47 212
e 48 701
e 48 778
e 48 356
e 48 417
e 48 671
e 50 663
e 50 627
e 50 608
e 51 704
e 51 627
e 51 99
e 51 506
e 51 460
e 51 683
e 54 781
e 54 182
e 54 899
e 54 211
e 55 386
e 55 633
e 55 310
e 55 583
e 55 586
e 55 161
e 55 541
e 56 345
e 56 794
e 56 685
e 57 269
e 57 401
e 57 145
e 57 643
e 57 330
e 57 407
e 57 606
e 57 382
e 57 434
e 60 488
e 60 364
e 60 714
e 60 466
e 60 421
e 60 597
e 61 101
e 61 729
e 61 476
e 61 428
e 62 138
e 62 628
e 62 926
e 62 802
e 62 966
e 63 710
e 63 279
e 63 77
e 63 509
e 63 749
e 64 590
e 64 138
e 64 858
e 65 659
e 65 880
e 65 957
e 65 669
e 65 392
e 65 548
e 65 728
e 66 533
e 66 436
e 66 608
e 66 849
e 66 440
e 66 763
e 67 263
e 67 888
e 67 250
e 67 167
e 68 420
e 68 807
e 68 701
e 69 749
e 69 938
e 69 650
e 70 870
e 70 851
e 70 77
e 70 221
e 70 638
e 71 159
e 71 646
e 71 496
e 71 267
e 71 904
e 71 814
e 71 632
e 72 683
e 72 254
e 72 204
e 72 246
e 74 497
e 74 715
e 74 683
e 74 862
e 74 663
e 74 907
e 74 828
e 74 127
e 74 669
e 75 120
e 75 893
e 75 628
e 75 907
e 75 895
e 76 360
e 76 854
e 76 483
e 76 744
e 76 236
e 77 529
e 77 604
e 77 500
e 78 246
e 78 830
e 78 104
e 78 378
e 78 137
e 79 1000
e 79 223
e 79 185
e 79 394
e 79 157
e 81 703
e 81 724
e 81 532
e 82 262
e 82 560
e 82 178
e 82 503
e 82 409
e 82 537
e 85 899
e 85 774
e 85 348
e 85 498
e 85 508
e 86 139
e 86 707
e 86 784
e 87 625
e 87 270
e 87 637
e 87 358
e 88 548
e 88 167
e 89 939
e 89 150
e 89 721
e 90 546
e 90 630
e 90 961
e 90 182
e 90 430
e 92 320
e 92 379
e 92 196
e 93 723
e 93 461
e 93 682
e 93 532
e 93 226
e 93 395
e 93 211
e 94 557
e 94 919
e 94 671
e 94 493
e 95 906
e 95 298
e 95 573
e 95 157
e 95 839
e 95 786
e 95 469
e 95 280
e 95 817
e 95 98
e 95 267
e 98 732
e 98 379
e 99 370
e 99 827
e 99 475
e 99 467
e 99 182
e 99 746
e 101 107
e 101 311
e 101 312
e 101 843
e 102 727
e 102 322
e 102 296
e 102 113
e 102 857
e 103 245
e 103 848
e 103 247
e 103 351
e 103 803
e 104 563
e 104 899
e 104 140
e 104 638
e 104 850
e 104 979
e 105 668
e 105 189
e 105 589
e 105 445
e 105 212
e 105 269
e 105 907
e 107 456
e 107 739
e 107 371
e 108 911
e 108 915
e 108 981
e 109 215
e 109 494
e 109 509
e 109 235
e 110 114
e 110 334
e 110 907
e 110 689
e 111 382
e 111 286
e 111 801
e 111 460
e 112 327
e 112 557
e 112 632
e 112 733
e 112 184
e 112 397
e 113 496
e 113 604
e 113 731
e 114 709
e 114 902
e 114 228
e 115 978
e 115 401
e 115 964
e 115 716
e 115 318
e 115 512
e 115 817
e 116 334
e 116 637
e 116 351
e 116 682
e 116 896
e 117 701
e 117 436
e 117 361
e 117 328
e 119 358
e 119 303
e 119 630
e 119 934
e 120 824
e 120 767
e 120 978
e 121 802
e 121 862
e 121 752
e 121 204
e 122 127
e 122 412
e 122 643
e 123 389
e 123 971
e 123 948
e 123 748
e 123 434
e 124 637
e 124 604
e 124 651
e 125 471
e 125 649
e 125 279
e 125 979
e 125 638
e 125 849
e 125 619
e 126 765
e 126 618
e 126 158
e 127 312
e 127 202
e 127 646
e 127 309
e 127 854
e 128 838
e 128 596
e 128 890
e 131 958
e 131 614
e 132 234
e 132 176
e 132 729
e 132 874
e 134 858
e 134 812
e 134 232
e 134 864
e 135 227
e 135 739
e 135 716
e 135 598
e 135 487
e 136 946
e 136 942
e 136 314
e 137 697
e 137 936
e 137 591
e 137 646
e 138 276
e 138 552
e 138 744
e 139 772
e 139 270
e 139 604
e 139 209
e 140 517
e 140 286
e 140 805
e 140 266
e 140 751
e 140 368
e 141 149
e 141 935
e 143 786
e 143 854
e 143 539
e 143 719
e 144 804
e 144 421
e 144 165
e 144 606
e 145 552
e 145 770
e 145 327
e 145 987
e 146 355
e 146 945
e 146 579
e 146 283
e 146 652
e 146 981
e 148 424
e 148 158
e 148 468
e 148 765
e 148 542
e 149 913
e 149 596
e 149 271
e 149 420
e 150 320
e 150 904
e 150 934
e 151 179
e 151 163
e 151 467
e 151 187
e 151 968
e 151 801
e 153 752
e 153 810
e 153 179
e 154 843
e 154 669
e 154 350
e 154 708
e 155 293
e 155 631
e 155 854
e 155 646
e 155 311
e 155 991
e 155 978
e 156 576
e 156 856
e 156 527
e 157 714
e 157 543
e 157 550
e 157 631
e 158 942
e 158 179
e 158 343
e 159 469
e 159 983
e 159 221
e 160 794
e 160 241
e 160 471
e 160 604
e 161 376
e 161 182
e 161 509
e 161 975
e 161 685
e 163 233
e 163 571
e 163 777
e 163 565
e 164 843
e 164 348
e 164 656
e 165 670
e 165 445
e 165 878
e 166 368
e 166 722
e 166 849
e 166 548
e 167 806
e 167 418
e 167 311
e 168 951
e 168 837
e 168 900
e 169 556
e 169 973
e 169 365
e 170 324
e 170 860
e 170 792
e 174 492
e 174 412
e 175 748
e 175 576
e 175 301
e 175 689
e 175 989
e 176 744
e 176 363
e 176 951
e 178 363
e 178 833
e 178 531
e 179 730
e 179 781
e 179 706
e 180 591
e 180 575
e 180 181
e 181 675
e 181 619
e 181 781
e 181 602
e 182 990
e 182 828
e 183 510
e 183 420
e 183 236
e 184 893
e 184 484
e 184 601
e 184 703
e 184 874
e 185 368
e 185 579
e 185 262
e 185 276
e 185 298
e 186 966
e 186 570
e 186 428
e 187 455
e 187 393
e 187 374
e 189 277
e 189 827
e 189 367
e 191 311
e 191 491
e 191 445
e 191 776
e 194 765
e 194 473
e 194 395
e 194 758
e 194 999
e 194 334
e 194 507
e 196 760
e 196 775
e 197 575
e 197 250
e 197 687
e 197 1000
e 199 720
e 199 817
e 199 307
e 199 261
e 199 925
e 201 546
e 201 303
e 201 961
e 202 925
e 202 978
e 202 393
e 202 332
e 204 770
e 204 697
e 205 573
e 205 287
e 205 855
e 207 924
e 207 270
e 207 314
e 207 424
e 208 768
e 208 939
e 208 587
e 209 462
e 211 950
e 212 803
e 212 585
e 213 632
e 213 716
e 213 950
e 215 560
e 215 714
e 216 613
e 216 375
e 216 690
e 217 611
e 217 413
e 217 231
e 217 852
e 218 704
e 218 888
e 218 681
e 221 330
e 222 370
e 222 857
e 222 234
e 222 731
e 222 619
e 223 569
e 223 447
e 223 442
e 223 375
e 226 728
e 226 645
e 226 486
e 227 896
e 227 431
e 227 586
e 228 381
e 228 675
e 228 906
e 228 951
e 228 658
e 228 999
e 229 322
e 229 628
e 229 539
e 229 296
e 231 541
e 231 678
e 231 489
e 231 856
e 231 652
e 231 606
e 231 979
e 231 956
e 231 763
e 232 651
e 232 496
e 232 348
e 232 252
e 233 588
e 233 791
e 233 990
e 234 261
e 234 262
e 235 270
e 235 731
e 235 298
e 235 277
e 236 642
e 236 377
e 236 846
e 236 712
e 236 325
e 241 510
e 241 624
e 241 684
e 241 731
e 241 855
e 241 634
e 241 407
e 245 395
e 245 441
e 245 768
e 246 484
e 246 689
e 246 732
e 246 800
e 247 625
e 247 855
e 247 510
e 247 494
e 248 618
e 248 697
e 248 295
e 249 886
e 249 549
e 249 575
e 250 607
e 250 649
e 250 689
e 250 869
e 250 823
e 251 923
e 251 500
e 251 724
e 251 671
e 252 472
e 252 855
e 252 292
e 253 619
e 253 788
e 253 379
e 254 393
e 254 295
e 254 759
e 257 475
e 257 838
e 258 560
e 258 408
e 258 776
e 258 289
e 260 904
e 260 956
e 260 727
e 261 636
e 261 551
e 261 509
e 261 613
e 262 634
e 262 655
e 262 442
e 263 653
e 263 590
e 263 989
e 264 275
e 264 543
e 264 913
e 265 565
e 265 481
e 265 341
e 265 683
e 266 978
e 266 574
e 267 524
e 267 620
e 267 745
e 267 342
e 268 393
e 268 405
e 268 439
e 268 377
e 268 711
e 268 899
e 268 504
e 269 476
e 269 841
e 269 677
e 269 293
e 270 707
e 271 863
e 271 719
e 271 361
e 271 710
e 273 556
e 273 588
e 273 682
e 274 388
e 274 935
e 274 442
e 274 626
e 275 828
e 275 831
e 275 353
e 276 448
e 276 938
e 276 994
e 277 565
e 277 869
e 277 509
e 277 948
e 277 927
e 279 449
e 279 690
e 279 457
e 280 811
e 280 765
e 281 354
e 281 564
e 281 353
e 283 441
e 283 568
e 283 594
e 283 459
e 284 354
e 284 490
e 284 535
e 284 923
e 285 551
e 285 607
e 285 637
e 285 760
e 286 637
e 286 890
e 286 886
e 287 316
e 287 448
e 287 318
e 289 960
e 289 567
e 289 964
e 290 512
e 290 666
e 290 672
e 291 558
e 291 613
e 291 932
e 291 387
e 292 590
e 292 558
e 292 988
e 292 583
e 292 972
e 292 744
e 293 670
e 293 765
e 293 435
e 293 946
e 294 588
e 294 677
e 295 702
e 295 481
e 295 337
e 296 956
e 298 702
e 298 875
e 298 923
e 300 476
e 300 788
e 300 655
e 301 325
e 301 983
e 303 512
e 303 502
e 304 899
e 304 539
e 306 841
e 306 435
e 306 754
e 307 332
e 307 833
e 307 767
e 308 991
e 308 852
e 308 927
e 308 373
e 308 487
e 308 441
e 309 424
e 309 894
e 309 563
e 309 329
e 309 972
e 310 953
e 310 353
e 310 730
e 311 924
e 312 862
e 312 494
e 312 565
e 312 833
e 312 856
e 313 701
e 313 317
e 313 370
e 313 972
e 313 405
e 313 517
e 313 788
e 314 457
e 314 382
e 314 556
e 315 618
e 315 325
e 315 985
e 315 964
e 316 730
e 316 321
e 316 626
e 317 491
e 317 917
e 317 593
e 317 651
e 318 576
e 318 817
e 318 788
e 319 565
e 319 488
e 319 684
e 319 614
e 320 347
e 320 783
e 320 439
e 321 444
e 321 435
e 321 356
e 321 771
e 322 962
e 323 684
e 323 864
e 323 896
e 323 541
e 323 906
e 324 845
e 324 651
e 325 925
e 325 550
e 325 778
e 325 351
e 325 740
e 327 569
e 328 754
e 328 504
e 328 498
e 328 883
e 328 985
e 328 881
e 328 367
e 329 683
e 329 563
e 330 862
e 330 781
e 331 781
e 331 668
e 331 612
e 331 968
e 331 953
e 331 776
e 331 539
e 331 934
e 332 545
e 334 837
e 334 727
e 336 347
e 336 500
e 336 678
e 336 584
e 336 732
e 336 701
e 337 923
e 337 669
e 337 378
e 339 935
e 339 509
e 339 706
e 340 348
e 340 881
e 340 772
e 341 642
e 341 760
e 342 776
e 342 744
e 342 881
e 342 845
e 342 852
e 343 557
e 343 953
e 343 745
e 343 709
e 345 995
e 345 892
e 346 716
e 346 552
e 347 607
e 350 727
e 350 709
e 350 389
e 350 649
e 350 361
e 351 751
e 351 649
e 353 620
e 353 837
e 353 907
e 354 783
e 354 867
e 354 655
e 355 492
e 355 933
e 355 961
e 355 760
e 355 938
e 356 917
e 356 751
e 356 869
e 357 380
e 357 367
e 357 761
e 358 388
e 358 659
e 358 966
e 358 944
e 358 878
e 360 751
e 360 943
e 360 528
e 363 962
e 363 392
e 363 946
e 363 805
e 364 881
e 364 778
e 365 484
e 365 827
e 367 948
e 367 614
e 368 683
e 368 893
e 368 597
e 368 414
e 370 386
e 371 781
e 371 759
e 371 645
e 371 862
e 371 625
e 373 592
e 373 386
e 373 598
e 374 962
e 374 767
e 374 677
e 374 702
e 374 516
e 374 745
e 374 811
e 375 431
e 376 659
e 376 979
e 376 552
e 376 627
e 377 625
e 377 674
e 377 817
e 377 510
e 378 591
e 378 650
e 378 707
e 378 771
e 378 394
e 379 551
e 380 570
e 380 911
e 380 747
e 381 886
e 381 607
e 381 414
e 381 823
e 382 722
e 382 923
e 382 472
e 382 591
e 382 995
e 383 741
e 383 400
e 383 508
e 386 412
e 386 533
e 386 894
e 386 766
e 387 924
e 387 395
e 388 464
e 388 619
e 389 875
e 389 947
e 389 905
e 389 535
e 391 804
e 391 606
e 391 578
e 391 576
e 392 745
e 393 702
e 393 859
e 393 900
e 393 845
e 394 504
e 394 532
e 394 929
e 395 956
e 395 473
e 397 708
e 397 506
e 397 989
e 397 803
e 400 589
e 400 616
e 401 564
e 401 411
e 401 803
e 403 771
e 403 506
e 403 786
e 404 596
e 404 499
e 404 708
e 404 833
e 405 849
e 405 855
e 407 471
e 407 487
e 407 803
e 408 978
e 408 599
e 408 481
e 408 645
e 409 412
e 409 924
e 411 895
e 411 423
e 411 891
e 412 714
e 413 634
e 413 731
e 413 414
e 413 988
e 413 880
e 413 445
e 414 827
e 414 721
e 414 569
e 414 574
e 414 958
e 416 590
e 416 456
e 416 434
e 417 987
e 417 643
e 418 592
e 418 881
e 420 579
e 420 824
e 421 481
e 422 884
e 422 812
e 422 888
e 423 722
e 423 739
e 424 727
e 424 754
e 424 663
e 424 846
e 425 522
e 425 523
e 425 839
e 425 616
e 428 991
e 428 467
e 428 860
e 428 870
e 428 892
e 428 632
e 430 626
e 430 720
e 431 526
e 431 961
e 431 601
e 434 530
e 434 546
e 434 509
e 435 583
e 435 612
e 435 828
e 436 575
e 436 658
e 439 462
e 439 604
e 439 752
e 440 831
e 440 609
e 441 481
e 441 860
e 441 894
e 441 905
e 441 842
e 441 778
e 441 711
e 442 592
e 442 505
e 444 961
e 444 757
e 444 911
e 445 720
e 445 535
e 446 677
e 446 699
e 446 447
e 446 775
e 446 767
e 446 848
e 447 680
e 447 628
e 448 544
e 448 567
e 448 733
e 449 674
e 449 824
e 449 721
e 455 911
e 455 783
e 455 768
e 455 530
e 456 704
e 457 931
e 459 612
e 459 723
e 459 680
e 460 884
e 461 627
e 461 740
e 461 741
e 461 670
e 461 788
e 462 526
e 462 905
e 464 488
e 464 927
e 465 560
e 465 975
e 465 765
e 465 505
e 466 658
e 466 775
e 467 601
e 467 674
e 468 709
e 468 599
e 469 538
e 471 911
e 472 558
e 472 953
e 472 490
e 472 758
e 473 655
e 473 752
e 473 741
e 475 573
e 476 537
e 478 509
e 478 675
e 483 766
e 483 741
e 483 932
e 483 567
e 484 842
e 486 953
e 486 891
e 486 997
e 486 602
e 487 813
e 487 664
e 487 807
e 488 888
e 489 754
e 490 792
e 490 949
e 490 934
e 490 496
e 491 716
e 491 841
e 491 863
e 492 746
e 492 712
e 492 534
e 492 971
e 493 721
e 493 800
e 493 861
e 494 546
e 494 751
e 494 786
e 496 907
e 496 740
e 496 533
e 496 839
e 497 874
e 498 602
e 498 584
e 498 543
e 498 878
e 499 886
e 499 542
e 499 584
e 499 804
e 500 752
e 500 565
e 500 646
e 502 864
e 502 686
e 502 614
e 503 893
e 503 905
e 503 511
e 503 753
e 504 803
e 505 936
e 506 749
e 506 962
e 507 990
e 507 749
e 507 649
e 508 935
e 508 530
e 508 727
e 509 792
e 510 830
e 510 590
e 511 585
e 512 766
e 513 1000
e 513 861
e 513 615
e 513 749
e 516 568
e 516 606
e 517 973
e 518 539
e 518 551
e 518 534
e 518 733
e 518 858
e 519 707
e 519 565
e 519 754
e 519 739
e 519 677
e 519 928
e 522 547
e 522 718
e 523 533
e 523 571
e 523 747
e 524 722
e 524 704
e 524 537
e 526 985
e 526 619
e 527 975
e 528 812
e 528 607
e 528 932
e 529 965
e 530 791
e 531 955
e 531 805
e 531 592
e 531 757
e 532 714
e 533 941
e 534 991
e 534 726
e 535 913
e 536 861
e 536 827
e 537 837
e 537 774
e 538 831
e 538 992
e 538 604
e 538 892
e 539 869
e 539 957
e 539 849
e 541 777
e 542 945
e 542 747
e 543 626
e 544 584
e 544 936
e 544 838
e 545 905
e 545 944
e 545 791
e 546 847
e 547 934
e 547 823
e 547 855
e 548 616
e 548 640
e 549 633
e 549 808
e 549 680
e 549 690
e 550 751
e 550 596
e 551 793
e 551 866
e 551 594
e 551 608
e 551 638
e 552 602
e 555 658
e 555 656
e 555 800
e 557 594
e 558 806
e 558 661
e 558 632
e 560 843
e 560 791
e 564 613
e 564 866
e 565 793
e 565 597
e 565 914
e 567 915
e 568 846
e 568 638
e 569 707
e 569 687
e 569 846
e 569 778
e 569 740
e 570 962
e 570 720
e 570 684
e 571 778
e 573 863
e 574 903
e 574 929
e 574 712
e 575 632
e 575 771
e 576 723
e 576 703
e 576 599
e 578 979
e 578 611
e 578 999
e 578 719
e 579 685
e 579 748
e 579 701
e 579 847
e 579 792
e 579 668
e 583 727
e 584 753
e 584 848
e 585 781
e 585 851
e 586 956
e 587 788
e 588 613
e 588 831
e 589 654
e 590 766
e 590 592
e 590 770
e 591 730
e 593 786
e 593 964
e 593 909
e 596 606
e 596 866
e 596 758
e 596 846
e 597 744
e 597 906
e 597 863
e 597 636
e 597 649
e 598 776
e 598 678
e 598 652
e 606 839
e 607 682
e 608 720
e 608 854
e 609 771
e 609 950
e 613 854
e 613 983
e 614 994
e 614 752
e 615 956
e 615 852
e 615 759
e 616 943
e 616 772
e 618 895
e 618 808
e 619 966
e 620 852
e 620 750
e 620 935
e 624 750
e 624 721
e 626 637
e 626 772
e 626 990
e 628 634
e 630 772
e 630 837
e 630 686
e 630 840
e 631 656
e 631 904
e 631 838
e 631 862
e 632 746
e 632 781
e 633 971
e 634 664
e 637 697
e 637 784
e 637 945
e 638 833
e 640 814
e 640 794
e 642 935
e 643 891
e 644 994
e 644 709
e 644 848
e 645 687
e 645 808
e 650 792
e 652 884
e 653 815
e 653 669
e 654 701
e 654 655
e 655 929
e 655 848
e 658 915
e 661 681
e 663 947
e 664 862
e 664 681
e 666 701
e 666 934
e 668 683
e 669 861
e 672 837
e 672 726
e 675 938
e 682 727
e 682 903
e 682 932
e 683 967
e 685 710
e 686 859
e 687 703
e 687 996
e 689 990
e 689 763
e 689 847
e 690 979
e 690 935
e 697 707
e 699 839
e 699 902
e 701 923
e 702 843
e 702 727
e 706 852
e 706 802
e 706 810
e 707 720
e 708 916
e 709 860
e 711 902
e 712 958
e 712 881
e 712 748
e 714 944
e 715 716
e 715 1000
e 715 793
e 715 996
e 716 913
e 716 851
e 718 748
e 718 772
e 718 988
e 721 752
e 723 966
e 724 777
e 726 774
e 726 841
e 727 979
e 728 988
e 728 815
e 729 837
e 729 763
e 731 917
e 733 997
e 733 936
e 739 806
e 739 931
e 740 813
e 744 957
e 744 903
e 744 830
e 746 955
e 746 926
e 747 864
e 750 866
e 751 824
e 752 919
e 752 861
e 753 931
e 753 805
e 754 925
e 757 849
e 760 992
e 760 943
e 761 815
e 765 791
e 766 810
e 768 943
e 770 883
e 772 864
e 772 909
e 774 802
e 774 905
e 775 992
e 775 800
e 776 824
e 777 956
e 777 909
e 778 931
e 784 899
e 788 916
e 788 886
e 791 857
e 792 931
e 793 911
e 800 972
e 801 971
e 801 842
e 803 985
e 803 831
e 803 806
e 805 981
e 806 838
e 807 905
e 807 915
e 808 866
e 810 971
e 810 823
e 811 845
e 811 837
e 812 992
e 813 841
e 814 941
e 814 978
e 814 944
e 817 858
e 817 916
e 824 828
e 824 941
e 824 921
e 831 936
e 833 933
e 837 849
e 837 995
e 840 923
e 840 950
e 841 894
e 843 915
e 843 949
e 845 989
e 847 929
e 848 967
e 850 966
e 850 989
e 851 933
e 854 881
e 854 883
e 857 939
e 859 893
e 859 957
e 860 953
e 861 973
e 862 953
e 867 961
e 869 880
e 869 973
e 874 926
e 875 891
e 878 965
e 888 915
e 888 905
e 890 914
e 891 994
e 891 955
e 903 955
e 907 968
e 913 949
e 913 968
e 914 999
e 916 953
e 919 996
e 919 990
e 921 1000
e 924 967
e 928 1000
e 935 962
e 936 947
e 942 997
e 948 981
e 953 975
e 960 965
e 972 987
e 972 981
