txt_Ins/graph-1000-948.txt
n 1000
e 0 668
e 0 844
e 0 642
e 0 932
e 0 701
e 1 615
e 1 492
e 1 421
e 1 345
e 3 488
e 3 370
e 3 507
e 3 890
e 3 883
e 3 50
e 4 268
e 4 302
e 4 33
e 4 196
e 5 181
e 5 717
e 5 140
e 5 35
e 5 324
e 5 814
e 5 467
e 6 662
e 6 535
e 6 433
e 6 366
e 6 112
e 6 649
e 7 331
e 7 853
e 7 791
e 7 574
e 9 421
e 9 491
e 9 898
e 9 87
e 9 874
e 11 261
e 11 372
e 11 340
e 11 803
e 11 920
e 11 885
e 12 711
e 12 636
e 12 645
e 12 899
e 13 253
e 13 81
e 13 570
e 14 498
e 14 531
e 14 775
e 14 220
e 15 708
e 15 503
e 15 85
e 15 406
e 15 256
e 15 667
e 15 16
e 15 793
e 16 495
e 16 608
e 18 459
e 18 422
e 18 959
e 18 246
e 18 636
e 19 569
e 19 711
e 19 120
e 19 512
e 20 592
e 20 910
e 20 180
e 21 252
e 21 122
e 21 77
e 21 293
e 26 477
e 26 339
e 26 162
e 27 262
e 27 510
e 27 310
e 27 591
e 28 564
e 28 550
e 28 925
e 28 927
e 28 490
e 28 66
e 28 698
e 30 42
e 30 635
e 30 548
e 30 286
e 31 758
e 31 257
e 31 312
e 31 893
e 32 391
e 32 869
e 32 610
e 32 208
e 32 303
e 32 53
e 33 596
e 33 289
e 33 84
e 34 869
e 34 625
e 34 586
e 35 114
e 35 760
e 35 173
e 35 912
e 36 941
e 36 960
e 36 523
e 36 143
e 37 575
e 37 660
e 37 563
e 38 468
e 38 626
e 38 130
e 38 402
e 40 877
e 40 356
e 40 137
e 40 526
e 42 995
e 42 230
e 42 496
e 42 260
e 43 363
e 43 731
e 43 538
e 43 946
e 43 421
e 43 597
e 44 487
e 44 996
e 44 528
e 44 906
e 44 651
e 46 443
e 46 723
e 46 866
e 46 670
e 46 211
e 47 700
e 47 777
e 47 355
e 47 416
e 47 670
e 49 662
e 49 626
e 49 607
e 50 703
e 50 626
e 50 98
e 50 505
e 50 459
e 50 682
e 53 780
e 53 181
e 53 898
e 53 210
e 54 385
e 54 632
e 54 309
e 54 582
e 54 585
e 54 160
e 54 540
e 55 344
e 55 793
e 55 684
e 56 268
e 56 400
e 56 144
e 56 642
e 56 329
e 56 406
e 56 605
e 56 381
e 56 433
e 59 487
e 59 363
e 59 713
e 59 465
e 59 420
e 59 596
e 60 100
e 60 728
e 60 475
e 60 427
e 61 137
e 61 627
e 61 925
e 61 801
e 61 965
e 62 709
e 62 278
e 62 76
e 62 508
e 62 748
e 63 589
e 63 137
e 63 857
e 64 658
e 64 879
e 64 956
e 64 668
e 64 391
e 64 547
e 64 727
e 65 532
e 65 435
e 65 607
e 65 848
e 65 439
e 65 762
e 66 262
e 66 887
e 66 249
e 66 166
e 67 419
e 67 806
e 67 700
e 68 748
e 68 937
e 68 649
e 69 869
e 69 850
e 69 76
e 69 220
e 69 637
e 70 158
e 70 645
e 70 495
e 70 266
e 70 903
e 70 813
e 70 631
e 71 682
e 71 253
e 71 203
e 71 245
e 73 496
e 73 714
e 73 682
e 73 861
e 73 662
e 73 906
e 73 827
e 73 126
e 73 668
e 74 119
e 74 892
e 74 627
e 74 906
e 74 894
e 75 359
e 75 853
e 75 482
e 75 743
e 75 235
e 76 528
e 76 603
e 76 499
e 77 245
e 77 829
e 77 103
e 77 377
e 77 136
e 78 999
e 78 222
e 78 184
e 78 393
e 78 156
e 80 702
e 80 723
e 80 531
e 81 261
e 81 559
e 81 177
e 81 502
e 81 408
e 81 536
e 84 898
e 84 773
e 84 347
e 84 497
e 84 507
e 85 138
e 85 706
e 85 783
e 86 624
e 86 269
e 86 636
e 86 357
e 87 547
e 87 166
e 88 938
e 88 149
e 88 720
e 89 545
e 89 629
e 89 960
e 89 181
e 89 429
e 91 319
e 91 378
e 91 195
e 92 722
e 92 460
e 92 681
e 92 531
e 92 225
e 92 394
e 92 210
e 93 556
e 93 918
e 93 670
e 93 492
e 94 905
e 94 297
e 94 572
e 94 156
e 94 838
e 94 785
e 94 468
e 94 279
e 94 816
e 94 97
e 94 266
e 97 731
e 97 378
e 98 369
e 98 826
e 98 474
e 98 466
e 98 181
e 98 745
e 100 106
e 100 310
e 100 311
e 100 842
e 101 726
e 101 321
e 101 295
e 101 112
e 101 856
e 102 244
e 102 847
e 102 246
e 102 350
e 102 802
e 103 562
e 103 898
e 103 139
e 103 637
e 103 849
e 103 978
e 104 667
e 104 188
e 104 588
e 104 444
e 104 211
e 104 268
e 104 906
e 106 455
e 106 738
e 106 370
e 107 910
e 107 914
e 107 980
e 108 214
e 108 493
e 108 508
e 108 234
e 109 113
e 109 333
e 109 906
e 109 688
e 110 381
e 110 285
e 110 800
e 110 459
e 111 326
e 111 556
e 111 631
e 111 732
e 111 183
e 111 396
e 112 495
e 112 603
e 112 730
e 113 708
e 113 901
e 113 227
e 114 977
e 114 400
e 114 963
e 114 715
e 114 317
e 114 511
e 114 816
e 115 333
e 115 636
e 115 350
e 115 681
e 115 895
e 116 700
e 116 435
e 116 360
e 116 327
e 118 357
e 118 302
e 118 629
e 118 933
e 119 823
e 119 766
e 119 977
e 120 801
e 120 861
e 120 751
e 120 203
e 121 126
e 121 411
e 121 642
e 122 388
e 122 970
e 122 947
e 122 747
e 122 433
e 123 636
e 123 603
e 123 650
e 124 470
e 124 648
e 124 278
e 124 978
e 124 637
e 124 848
e 124 618
e 125 764
e 125 617
e 125 157
e 126 311
e 126 201
e 126 645
e 126 308
e 126 853
e 127 837
e 127 595
e 127 889
e 130 957
e 130 613
e 131 233
e 131 175
e 131 728
e 131 873
e 133 857
e 133 811
e 133 231
e 133 863
e 134 226
e 134 738
e 134 715
e 134 597
e 134 486
e 135 945
e 135 941
e 135 313
e 136 696
e 136 935
e 136 590
e 136 645
e 137 275
e 137 551
e 137 743
e 138 771
e 138 269
e 138 603
e 138 208
e 139 516
e 139 285
e 139 804
e 139 265
e 139 750
e 139 367
e 140 148
e 140 934
e 142 785
e 142 853
e 142 538
e 142 718
e 143 803
e 143 420
e 143 164
e 143 605
e 144 551
e 144 769
e 144 326
e 144 986
e 145 354
e 145 944
e 145 578
e 145 282
e 145 651
e 145 980
e 147 423
e 147 157
e 147 467
e 147 764
e 147 541
e 148 912
e 148 595
e 148 270
e 148 419
e 149 319
e 149 903
e 149 933
e 150 178
e 150 162
e 150 466
e 150 186
e 150 967
e 150 800
e 152 751
e 152 809
e 152 178
e 153 842
e 153 668
e 153 349
e 153 707
e 154 292
e 154 630
e 154 853
e 154 645
e 154 310
e 154 990
e 154 977
e 155 575
e 155 855
e 155 526
e 156 713
e 156 542
e 156 549
e 156 630
e 157 941
e 157 178
e 157 342
e 158 468
e 158 982
e 158 220
e 159 793
e 159 240
e 159 470
e 159 603
e 160 375
e 160 181
e 160 508
e 160 974
e 160 684
e 162 232
e 162 570
e 162 776
e 162 564
e 163 842
e 163 347
e 163 655
e 164 669
e 164 444
e 164 877
e 165 367
e 165 721
e 165 848
e 165 547
e 166 805
e 166 417
e 166 310
e 167 950
e 167 836
e 167 899
e 168 555
e 168 972
e 168 364
e 169 323
e 169 859
e 169 791
e 173 491
e 173 411
e 174 747
e 174 575
e 174 300
e 174 688
e 174 988
e 175 743
e 175 362
e 175 950
e 177 362
e 177 832
e 177 530
e 178 729
e 178 780
e 178 705
e 179 590
e 179 574
e 179 180
e 180 674
e 180 618
e 180 780
e 180 601
e 181 989
e 181 827
e 182 509
e 182 419
e 182 235
e 183 892
e 183 483
e 183 600
e 183 702
e 183 873
e 184 367
e 184 578
e 184 261
e 184 275
e 184 297
e 185 965
e 185 569
e 185 427
e 186 454
e 186 392
e 186 373
e 188 276
e 188 826
e 188 366
e 190 310
e 190 490
e 190 444
e 190 775
e 193 764
e 193 472
e 193 394
e 193 757
e 193 998
e 193 333
e 193 506
e 195 759
e 195 774
e 196 574
e 196 249
e 196 686
e 196 999
e 198 719
e 198 816
e 198 306
e 198 260
e 198 924
e 200 545
e 200 302
e 200 960
e 201 924
e 201 977
e 201 392
e 201 331
e 203 769
e 203 696
e 204 572
e 204 286
e 204 854
e 206 923
e 206 269
e 206 313
e 206 423
e 207 767
e 207 938
e 207 586
e 208 461
e 210 949
e 211 802
e 211 584
e 212 631
e 212 715
e 212 949
e 214 559
e 214 713
e 215 612
e 215 374
e 215 689
e 216 610
e 216 412
e 216 230
e 216 851
e 217 703
e 217 887
e 217 680
e 220 329
e 221 369
e 221 856
e 221 233
e 221 730
e 221 618
e 222 568
e 222 446
e 222 441
e 222 374
e 225 727
e 225 644
e 225 485
e 226 895
e 226 430
e 226 585
e 227 380
e 227 674
e 227 905
e 227 950
e 227 657
e 227 998
e 228 321
e 228 627
e 228 538
e 228 295
e 230 540
e 230 677
e 230 488
e 230 855
e 230 651
e 230 605
e 230 978
e 230 955
e 230 762
e 231 650
e 231 495
e 231 347
e 231 251
e 232 587
e 232 790
e 232 989
e 233 260
e 233 261
e 234 269
e 234 730
e 234 297
e 234 276
e 235 641
e 235 376
e 235 845
e 235 711
e 235 324
e 240 509
e 240 623
e 240 683
e 240 730
e 240 854
e 240 633
e 240 406
e 244 394
e 244 440
e 244 767
e 245 483
e 245 688
e 245 731
e 245 799
e 246 624
e 246 854
e 246 509
e 246 493
e 247 617
e 247 696
e 247 294
e 248 885
e 248 548
e 248 574
e 249 606
e 249 648
e 249 688
e 249 868
e 249 822
e 250 922
e 250 499
e 250 723
e 250 670
e 251 471
e 251 854
e 251 291
e 252 618
e 252 787
e 252 378
e 253 392
e 253 294
e 253 758
e 256 474
e 256 837
e 257 559
e 257 407
e 257 775
e 257 288
e 259 903
e 259 955
e 259 726
e 260 635
e 260 550
e 260 508
e 260 612
e 261 633
e 261 654
e 261 441
e 262 652
e 262 589
e 262 988
e 263 274
e 263 542
e 263 912
e 264 564
e 264 480
e 264 340
e 264 682
e 265 977
e 265 573
e 266 523
e 266 619
e 266 744
e 266 341
e 267 392
e 267 404
e 267 438
e 267 376
e 267 710
e 267 898
e 267 503
e 268 475
e 268 840
e 268 676
e 268 292
e 269 706
e 270 862
e 270 718
e 270 360
e 270 709
e 272 555
e 272 587
e 272 681
e 273 387
e 273 934
e 273 441
e 273 625
e 274 827
e 274 830
e 274 352
e 275 447
e 275 937
e 275 993
e 276 564
e 276 868
e 276 508
e 276 947
e 276 926
e 278 448
e 278 689
e 278 456
e 279 810
e 279 764
e 280 353
e 280 563
e 280 352
e 282 440
e 282 567
e 282 593
e 282 458
e 283 353
e 283 489
e 283 534
e 283 922
e 284 550
e 284 606
e 284 636
e 284 759
e 285 636
e 285 889
e 285 885
e 286 315
e 286 447
e 286 317
e 288 959
e 288 566
e 288 963
e 289 511
e 289 665
e 289 671
e 290 557
e 290 612
e 290 931
e 290 386
e 291 589
e 291 557
e 291 987
e 291 582
e 291 971
e 291 743
e 292 669
e 292 764
e 292 434
e 292 945
e 293 587
e 293 676
e 294 701
e 294 480
e 294 336
e 295 955
e 297 701
e 297 874
e 297 922
e 299 475
e 299 787
e 299 654
e 300 324
e 300 982
e 302 511
e 302 501
e 303 898
e 303 538
e 305 840
e 305 434
e 305 753
e 306 331
e 306 832
e 306 766
e 307 990
e 307 851
e 307 926
e 307 372
e 307 486
e 307 440
e 308 423
e 308 893
e 308 562
e 308 328
e 308 971
e 309 952
e 309 352
e 309 729
e 310 923
e 311 861
e 311 493
e 311 564
e 311 832
e 311 855
e 312 700
e 312 316
e 312 369
e 312 971
e 312 404
e 312 516
e 312 787
e 313 456
e 313 381
e 313 555
e 314 617
e 314 324
e 314 984
e 314 963
e 315 729
e 315 320
e 315 625
e 316 490
e 316 916
e 316 592
e 316 650
e 317 575
e 317 816
e 317 787
e 318 564
e 318 487
e 318 683
e 318 613
e 319 346
e 319 782
e 319 438
e 320 443
e 320 434
e 320 355
e 320 770
e 321 961
e 322 683
e 322 863
e 322 895
e 322 540
e 322 905
e 323 844
e 323 650
e 324 924
e 324 549
e 324 777
e 324 350
e 324 739
e 326 568
e 327 753
e 327 503
e 327 497
e 327 882
e 327 984
e 327 880
e 327 366
e 328 682
e 328 562
e 329 861
e 329 780
e 330 780
e 330 667
e 330 611
e 330 967
e 330 952
e 330 775
e 330 538
e 330 933
e 331 544
e 333 836
e 333 726
e 335 346
e 335 499
e 335 677
e 335 583
e 335 731
e 335 700
e 336 922
e 336 668
e 336 377
e 338 934
e 338 508
e 338 705
e 339 347
e 339 880
e 339 771
e 340 641
e 340 759
e 341 775
e 341 743
e 341 880
e 341 844
e 341 851
e 342 556
e 342 952
e 342 744
e 342 708
e 344 994
e 344 891
e 345 715
e 345 551
e 346 606
e 349 726
e 349 708
e 349 388
e 349 648
e 349 360
e 350 750
e 350 648
e 352 619
e 352 836
e 352 906
e 353 782
e 353 866
e 353 654
e 354 491
e 354 932
e 354 960
e 354 759
e 354 937
e 355 916
e 355 750
e 355 868
e 356 379
e 356 366
e 356 760
e 357 387
e 357 658
e 357 965
e 357 943
e 357 877
e 359 750
e 359 942
e 359 527
e 362 961
e 362 391
e 362 945
e 362 804
e 363 880
e 363 777
e 364 483
e 364 826
e 366 947
e 366 613
e 367 682
e 367 892
e 367 596
e 367 413
e 369 385
e 370 780
e 370 758
e 370 644
e 370 861
e 370 624
e 372 591
e 372 385
e 372 597
e 373 961
e 373 766
e 373 676
e 373 701
e 373 515
e 373 744
e 373 810
e 374 430
e 375 658
e 375 978
e 375 551
e 375 626
e 376 624
e 376 673
e 376 816
e 376 509
e 377 590
e 377 649
e 377 706
e 377 770
e 377 393
e 378 550
e 379 569
e 379 910
e 379 746
e 380 885
e 380 606
e 380 413
e 380 822
e 381 721
e 381 922
e 381 471
e 381 590
e 381 994
e 382 740
e 382 399
e 382 507
e 385 411
e 385 532
e 385 893
e 385 765
e 386 923
e 386 394
e 387 463
e 387 618
e 388 874
e 388 946
e 388 904
e 388 534
e 390 803
e 390 605
e 390 577
e 390 575
e 391 744
e 392 701
e 392 858
e 392 899
e 392 844
e 393 503
e 393 531
e 393 928
e 394 955
e 394 472
e 396 707
e 396 505
e 396 988
e 396 802
e 399 588
e 399 615
e 400 563
e 400 410
e 400 802
e 402 770
e 402 505
e 402 785
e 403 595
e 403 498
e 403 707
e 403 832
e 404 848
e 404 854
e 406 470
e 406 486
e 406 802
e 407 977
e 407 598
e 407 480
e 407 644
e 408 411
e 408 923
e 410 894
e 410 422
e 410 890
e 411 713
e 412 633
e 412 730
e 412 413
e 412 987
e 412 879
e 412 444
e 413 826
e 413 720
e 413 568
e 413 573
e 413 957
e 415 589
e 415 455
e 415 433
e 416 986
e 416 642
e 417 591
e 417 880
e 419 578
e 419 823
e 420 480
e 421 883
e 421 811
e 421 887
e 422 721
e 422 738
e 423 726
e 423 753
e 423 662
e 423 845
e 424 521
e 424 522
e 424 838
e 424 615
e 427 990
e 427 466
e 427 859
e 427 869
e 427 891
e 427 631
e 429 625
e 429 719
e 430 525
e 430 960
e 430 600
e 433 529
e 433 545
e 433 508
e 434 582
e 434 611
e 434 827
e 435 574
e 435 657
e 438 461
e 438 603
e 438 751
e 439 830
e 439 608
e 440 480
e 440 859
e 440 893
e 440 904
e 440 841
e 440 777
e 440 710
e 441 591
e 441 504
e 443 960
e 443 756
e 443 910
e 444 719
e 444 534
e 445 676
e 445 698
e 445 446
e 445 774
e 445 766
e 445 847
e 446 679
e 446 627
e 447 543
e 447 566
e 447 732
e 448 673
e 448 823
e 448 720
e 454 910
e 454 782
e 454 767
e 454 529
e 455 703
e 456 930
e 458 611
e 458 722
e 458 679
e 459 883
e 460 626
e 460 739
e 460 740
e 460 669
e 460 787
e 461 525
e 461 904
e 463 487
e 463 926
e 464 559
e 464 974
e 464 764
e 464 504
e 465 657
e 465 774
e 466 600
e 466 673
e 467 708
e 467 598
e 468 537
e 470 910
e 471 557
e 471 952
e 471 489
e 471 757
e 472 654
e 472 751
e 472 740
e 474 572
e 475 536
e 477 508
e 477 674
e 482 765
e 482 740
e 482 931
e 482 566
e 483 841
e 485 952
e 485 890
e 485 996
e 485 601
e 486 812
e 486 663
e 486 806
e 487 887
e 488 753
e 489 791
e 489 948
e 489 933
e 489 495
e 490 715
e 490 840
e 490 862
e 491 745
e 491 711
e 491 533
e 491 970
e 492 720
e 492 799
e 492 860
e 493 545
e 493 750
e 493 785
e 495 906
e 495 739
e 495 532
e 495 838
e 496 873
e 497 601
e 497 583
e 497 542
e 497 877
e 498 885
e 498 541
e 498 583
e 498 803
e 499 751
e 499 564
e 499 645
e 501 863
e 501 685
e 501 613
e 502 892
e 502 904
e 502 510
e 502 752
e 503 802
e 504 935
e 505 748
e 505 961
e 506 989
e 506 748
e 506 648
e 507 934
e 507 529
e 507 726
e 508 791
e 509 829
e 509 589
e 510 584
e 511 765
e 512 999
e 512 860
e 512 614
e 512 748
e 515 567
e 515 605
e 516 972
e 517 538
e 517 550
e 517 533
e 517 732
e 517 857
e 518 706
e 518 564
e 518 753
e 518 738
e 518 676
e 518 927
e 521 546
e 521 717
e 522 532
e 522 570
e 522 746
e 523 721
e 523 703
e 523 536
e 525 984
e 525 618
e 526 974
e 527 811
e 527 606
e 527 931
e 528 964
e 529 790
e 530 954
e 530 804
e 530 591
e 530 756
e 531 713
e 532 940
e 533 990
e 533 725
e 534 912
e 535 860
e 535 826
e 536 836
e 536 773
e 537 830
e 537 991
e 537 603
e 537 891
e 538 868
e 538 956
e 538 848
e 540 776
e 541 944
e 541 746
e 542 625
e 543 583
e 543 935
e 543 837
e 544 904
e 544 943
e 544 790
e 545 846
e 546 933
e 546 822
e 546 854
e 547 615
e 547 639
e 548 632
e 548 807
e 548 679
e 548 689
e 549 750
e 549 595
e 550 792
e 550 865
e 550 593
e 550 607
e 550 637
e 551 601
e 554 657
e 554 655
e 554 799
e 556 593
e 557 805
e 557 660
e 557 631
e 559 842
e 559 790
e 563 612
e 563 865
e 564 792
e 564 596
e 564 913
e 566 914
e 567 845
e 567 637
e 568 706
e 568 686
e 568 845
e 568 777
e 568 739
e 569 961
e 569 719
e 569 683
e 570 777
e 572 862
e 573 902
e 573 928
e 573 711
e 574 631
e 574 770
e 575 722
e 575 702
e 575 598
e 577 978
e 577 610
e 577 998
e 577 718
e 578 684
e 578 747
e 578 700
e 578 846
e 578 791
e 578 667
e 582 726
e 583 752
e 583 847
e 584 780
e 584 850
e 585 955
e 586 787
e 587 612
e 587 830
e 588 653
e 589 765
e 589 591
e 589 769
e 590 729
e 592 785
e 592 963
e 592 908
e 595 605
e 595 865
e 595 757
e 595 845
e 596 743
e 596 905
e 596 862
e 596 635
e 596 648
e 597 775
e 597 677
e 597 651
e 605 838
e 606 681
e 607 719
e 607 853
e 608 770
e 608 949
e 612 853
e 612 982
e 613 993
e 613 751
e 614 955
e 614 851
e 614 758
e 615 942
e 615 771
e 617 894
e 617 807
e 618 965
e 619 851
e 619 749
e 619 934
e 623 749
e 623 720
e 625 636
e 625 771
e 625 989
e 627 633
e 629 771
e 629 836
e 629 685
e 629 839
e 630 655
e 630 903
e 630 837
e 630 861
e 631 745
e 631 780
e 632 970
e 633 663
e 636 696
e 636 783
e 636 944
e 637 832
e 639 813
e 639 793
e 641 934
e 642 890
e 643 993
e 643 708
e 643 847
e 644 686
e 644 807
e 649 791
e 651 883
e 652 814
e 652 668
e 653 700
e 653 654
e 654 928
e 654 847
e 657 914
e 660 680
e 662 946
e 663 861
e 663 680
e 665 700
e 665 933
e 667 682
e 668 860
e 671 836
e 671 725
e 674 937
e 681 726
e 681 902
e 681 931
e 682 966
e 684 709
e 685 858
e 686 702
e 686 995
e 688 989
e 688 762
e 688 846
e 689 978
e 689 934
e 696 706
e 698 838
e 698 901
e 700 922
e 701 842
e 701 726
e 705 851
e 705 801
e 705 809
e 706 719
e 707 915
e 708 859
e 710 901
e 711 957
e 711 880
e 711 747
e 713 943
e 714 715
e 714 999
e 714 792
e 714 995
e 715 912
e 715 850
e 717 747
e 717 771
e 717 987
e 720 751
e 722 965
e 723 776
e 725 773
e 725 840
e 726 978
e 727 987
e 727 814
e 728 836
e 728 762
e 730 916
e 732 996
e 732 935
e 738 805
e 738 930
e 739 812
e 743 956
e 743 902
e 743 829
e 745 954
e 745 925
e 746 863
e 749 865
e 750 823
e 751 918
e 751 860
e 752 930
e 752 804
e 753 924
e 756 848
e 759 991
e 759 942
e 760 814
e 764 790
e 765 809
e 767 942
e 769 882
e 771 863
e 771 908
e 773 801
e 773 904
e 774 991
e 774 799
e 775 823
e 776 955
e 776 908
e 777 930
e 783 898
e 787 915
e 787 885
e 790 856
e 791 930
e 792 910
e 799 971
e 800 970
e 800 841
e 802 984
e 802 830
e 802 805
e 804 980
e 805 837
e 806 904
e 806 914
e 807 865
e 809 970
e 809 822
e 810 844
e 810 836
e 811 991
e 812 840
e 813 940
e 813 977
e 813 943
e 816 857
e 816 915
e 823 827
e 823 940
e 823 920
e 830 935
e 832 932
e 836 848
e 836 994
e 839 922
e 839 949
e 840 893
e 842 914
e 842 948
e 844 988
e 846 928
e 847 966
e 849 965
e 849 988
e 850 932
e 853 880
e 853 882
e 856 938
e 858 892
e 858 956
e 859 952
e 860 972
e 861 952
e 866 960
e 868 879
e 868 972
e 873 925
e 874 890
e 877 964
e 887 914
e 887 904
e 889 913
e 890 993
e 890 954
e 902 954
e 906 967
e 912 948
e 912 967
e 913 998
e 915 952
e 918 995
e 918 989
e 920 999
e 923 966
e 927 999
e 934 961
e 935 946
e 941 996
e 947 980
e 952 974
e 959 964
e 971 986
e 971 980
